Route #1: 40 12 26 67 46 34 52 27 4
Route #2: 17 51 3 44 32 50 18 55 25 31 9 39 72
Route #3: 58 10 38 65 66 11 59 14
Route #4: 7 53 35 8 19 54 13 57 15 37 20 70 60 71 69 36
Route #5: 21 61 22 64 42 43 41 56 23 24 49 16
Route #6: 63 33 73 1 62 28 74 48 47 5 29 45
Route #7: 6 2 30 68 75
Cost 753